# LAMMPS Input File for Grain Boundaries 
# Mark Tschopp, Dec2009 
# This file will generate a single Sigma5(310) STGB

# ------------------------ INITIALIZATION ----------------------
clear 
units		metal 
dimension	3 
boundary	p p p 
atom_style	atomic 

# ----------------------- ATOM DEFINITION ---------------------- 
lattice		fcc 4.05 
region		whole block 0.000000 12.807225 -64.0361225 64.0361225 0.000000 4.050000 units box
create_box	2 whole

region		upper block INF INF 0.000000 64.0361225 INF INF units box
lattice		fcc 4.05 orient x 0 3 1 orient y 0 -1 3 orient z 1 0 0 
create_atoms	1 region upper

region		lower block INF INF -64.0361225 0.0 INF INF units box
lattice		fcc 4.05 orient x 0 3 -1 orient y 0 1 3 orient z 1 0 0 
create_atoms	2 region lower 

# ----------------------- POTENTIAL -----------------------
pair_style	eam/alloy
pair_coeff	* * Al99.eam.alloy Al Al
neighbor	2.0 bin 
neigh_modify	delay 10 check yes 

group		upper region upper 
group		lower region lower
 
# ---------- DISPLACE & REMOVE OVERLAP --------------------- 
displace_atoms	upper move 0 0 0 units lattice 
delete_atoms	overlap 0.35 lower upper
 
# ---------- SETTINGS --------------------- 
compute		csym all centro/atom fcc
compute		eng all pe/atom 
compute		eatoms all reduce sum c_eng 

# ---------- MINIMIZATION --------------------- 
reset_timestep	0 
thermo		10 
thermo_style	custom step atoms pe lx ly lz press pxx pyy pzz c_eatoms 
dump 		1 all cfg 25 Out/dump.sig5_minimization_*.cfg mass type xs ys zs c_csym c_eng fx fy fz
dump_modify     1 element Al Al
min_style	cg 
min_modify	dmax 1.0e-2 line quadratic
minimize	1e-25 1e-25 10000 10000
#undump		1

# ---------- MINIMIZATION 2--------------------- 
# Now allow the box to expand/contract perpendicular to the grain boundary
reset_timestep	0 
thermo		10 
thermo_style	custom step atoms pe lx ly lz press pxx pyy pzz c_eatoms 
fix		1 all box/relax y 0 vmax 0.001
min_style	cg 
min_modify	dmax 1.0e-2 line quadratic
minimize	1e-25 1e-25 10000 10000

# ---------- CALCULATION GB ENERGY --------------------- 
variable	minimumenergy equal -3.35836395663771 #-3.35999998818263
variable	esum equal "v_minimumenergy * count(all)" 
variable	xseng equal "c_eatoms - (v_minimumenergy * count(all))" 
variable	gbarea equal "lx * lz * 2" 
variable	gbe equal "(c_eatoms - (v_minimumenergy * count(all)))/v_gbarea" 
variable	gbemJm2 equal ${gbe}*16021.7657

print		"GB energy is ${gbemJm2} mJ/m^2" 
 
print		"All done"
