# Vacancy formation energy using topology files 
log 		E_pristine.lammps

units		metal
dimension       3
boundary	p p p
atom_style      atomic
read_data       pristine_graphene.atoms
lattice         sc 1.0

# Define minimization parameters
variable 	etol equal 1.0e-20
variable 	ftol equal 1.0e-20
variable 	maxiter equal 10000
variable 	maxeval equal 10000
variable 	dmax equal 1.0e-2

# ----- SETUP -----
pair_style	airebo 3.0
pair_coeff 	* *  CH.airebo.mod C
neighbor 	1.0 nsq
neigh_modify 	once no every 1 delay 0 check yes

compute		bbreak all coord/atom 2.0
compute 	eng all pe/atom 
compute 	eatoms all reduce sum c_eng

# ----- THERMAL -----
thermo          100
thermo_style    custom step atoms temp pe ke etotal press pxx pyy pzz pxy pxz pyz lx ly lz c_eatoms
thermo_modify   lost warn norm no flush yes

# --------- MINIMIZATION -----
dump            rlx all cfg 100 Out/Pristine.*.cfg mass type xs ys zs c_eng c_bbreak
dump_modify	rlx element C
min_style	cg
min_modify	dmax ${dmax} line quadratic
minimize 	${etol} ${ftol} ${maxiter} ${maxeval}

# --------- RELAXATION -----
timestep        0.001
velocity 	all create 300 1232 mom yes rot yes dist gaussian
fix             temp all npt temp 300 300 0.1 iso 0.0 0.0 1.0
run             5000
unfix 		temp 
fix             tmp all npt temp 300 10 0.5 iso 0.0 0.0 1.0
run             10000
unfix		tmp
fix             tmp all npt temp 10 10 0.1 iso 0.0 0.0 1.0
run             5000
unfix		tmp
fix             tmp all npt temp 10 1 0.1 iso 0.0 0.0 1.0
run             10000
unfix		tmp
fix             tmp all npt temp 1 1 0.1 iso 0.0 0.0 1.0
run             5000
unfix		tmp

# --------- MINIMIZATION -----
min_style	cg
min_modify	dmax ${dmax} line quadratic
minimize 	${etol} ${ftol} ${maxiter} ${maxeval}

# --------- VARIABLES & FINAL CALCULATION --------- 
variable 	N equal count(all)
variable 	Natoms equal $N
variable 	E equal "c_eatoms"
variable 	Ef equal $E

variable	Ev equal ${Ef}/${Natoms}

print		"The minimum atomic energy is ${minEng}"

print 		"The total energy is ${Ef}"
print 		"The total number of atoms is ${Natoms}"
print		"The energy per atom is ${Ev}"
