log 		Eform_gb_Sigma37.lammps

# --------- SETUP
units           metal
atom_style      atomic
boundary        p p p
dimension       3
read_data       atoms.dat
lattice         sc 1.0

variable 	etol equal 1.0e-4
variable 	ftol equal 1.0e-4
variable 	maxiter equal 10000
variable 	maxeval equal 10000
variable 	dmax equal 1.0e-2

# ----- SETUP -----
pair_style	airebo 3.0
pair_coeff 	* *  CH.airebo.mod C
neighbor 	1.0 nsq
neigh_modify 	once no every 1 delay 0 check yes

compute		bbreak all coord/atom 2.0
compute 	eng all pe/atom 
compute 	eatoms all reduce sum c_eng

# ----- THERMAL -----
reset_timestep	0
thermo		10
thermo_style 	custom step atoms temp pe ke etotal press pxx pyy pzz pxy pxz pyz lx ly lz c_eatoms
thermo_modify 	norm no

# --------- MINIMIZATION
min_style	cg
min_modify	dmax ${dmax} line quadratic
minimize 	${etol} ${ftol} ${maxiter} ${maxeval}

# --------- RELAXATION
reset_timestep	0
timestep        0.001
compute         SA all stress/atom virial
velocity 	all create 300 1232 mom yes rot yes dist gaussian
velocity 	all set NULL NULL 0.0
fix             temp all npt temp 300 300 0.1 x 0.0 0.0 1.0 y 0.0 0.0 1.0 
fix             aveenerg all ave/atom 1 100 100 c_eng
fix             atomstressx all ave/atom 1 100 100 c_SA[1]
fix             atomstressy all ave/atom 1 100 100 c_SA[2]
fix		zdir all setforce NULL NULL 0.0
thermo          100
thermo_style    custom step atoms temp pe ke etotal press pxx pyy pzz pxy pxz pyz lx ly lz c_eatoms
thermo_modify   lost error norm no flush yes
#dump            rlx all cfg 100 Out/rlx.*.cfg id type xs ys zs c_eng c_bbreak f_aveenerg
run             10000
unfix 		temp 
unfix 		atomstressx
unfix 		atomstressy
unfix 		aveenerg
unfix 		zdir
#undump		rlx


# --------- VARIABLES

variable 	muC equal -7.349
variable	d equal 14.960628329050888
variable 	N equal count(all)
variable 	Natoms equal $N
variable 	E equal "c_eatoms"
variable 	Ef equal $E

variable	Ev equal (${Ef}-${Natoms}*${muC})/(2*${d})

print 		"The total energy is ${Ef}"
print 		"The total number of atoms is ${Natoms}"
print		"The GB formation energy is ${Ev}"
